p wcnf 593 1452
w -2 2.712781 0
w 2 0.368625 0
w -3 2.623867 0
w 3 0.381117 0
w -4 0.579241 0
w 4 1.726398 0
w -5 2.655315 0
w 5 0.376603 0
w -7 1.918859 0
w 7 0.521143 0
w -8 2.630094 0
w 8 0.380215 0
w -9 0.587221 0
w 9 1.702936 0
w -10 2.080402 0
w 10 0.480676 0
w -12 0.434360 0
w 12 2.302240 0
w -13 1.986923 0
w 13 0.503291 0
w -14 2.098726 0
w 14 0.476480 0
w -16 0.753024 0
w 16 1.327978 0
w -17 0.709869 0
w 17 1.408710 0
w -18 2.577626 0
w 18 0.387954 0
w -19 0.537078 0
w 19 1.861927 0
w -21 0.610223 0
w 21 1.638745 0
w -22 2.281227 0
w 22 0.438361 0
w -23 1.678310 0
w 23 0.595837 0
w -24 1.331947 0
w 24 0.750781 0
w -25 0.657316 0
w 25 1.521338 0
w -26 0.469107 0
w 26 2.131708 0
w -28 0.559475 0
w 28 1.787390 0
w -29 1.383350 0
w 29 0.722883 0
w -31 1.391599 0
w 31 0.718598 0
w -32 0.479652 0
w 32 2.084844 0
w -34 0.421298 0
w 34 2.373616 0
w -35 2.677097 0
w 35 0.373539 0
w -37 0.474120 0
w 37 2.109170 0
w -38 1.222991 0
w 38 0.817668 0
w -39 0.848423 0
w 39 1.178657 0
w -41 0.612545 0
w 41 1.632534 0
w -42 0.418398 0
w 42 2.390070 0
w -43 0.961981 0
w 43 1.039521 0
w -45 0.480451 0
w 45 2.081376 0
w -46 1.570534 0
w 46 0.636726 0
w -47 2.499721 0
w 47 0.400045 0
w -49 0.462632 0
w 49 2.161545 0
w -50 0.906258 0
w 50 1.103439 0
w -51 0.380280 0
w 51 2.629641 0
w -53 2.214085 0
w 53 0.451654 0
w -54 1.954665 0
w 54 0.511597 0
w -55 0.742959 0
w 55 1.345970 0
w -56 0.736318 0
w 56 1.358110 0
w -58 0.462976 0
w 58 2.159938 0
w -59 0.425350 0
w 59 2.351007 0
w -60 1.785452 0
w 60 0.560082 0
w -61 1.156257 0
w 61 0.864860 0
w -62 0.853705 0
w 62 1.171365 0
w -64 0.646723 0
w 64 1.546256 0
w -65 0.437570 0
w 65 2.285346 0
w -68 0.819093 0
w 68 1.220863 0
w -69 1.640879 0
w 69 0.609429 0
w -70 0.568587 0
w 70 1.758746 0
w -71 1.625038 0
w 71 0.615370 0
w -72 0.650437 0
w 72 1.537428 0
w -74 0.796991 0
w 74 1.254719 0
w -75 1.628201 0
w 75 0.614175 0
w -76 0.918345 0
w 76 1.088915 0
w -77 0.905071 0
w 77 1.104885 0
w -79 0.380314 0
w 79 2.629408 0
w -80 0.949487 0
w 80 1.053200 0
w -81 0.739069 0
w 81 1.353053 0
w -83 0.662183 0
w 83 1.510156 0
w -85 0.864895 0
w 85 1.156209 0
w -86 1.172506 0
w 86 0.852874 0
w -87 1.073262 0
w 87 0.931739 0
w -88 0.773112 0
w 88 1.293473 0
w -89 0.657187 0
w 89 1.521636 0
w -91 0.534788 0
w 91 1.869899 0
w -92 0.491502 0
w 92 2.034580 0
w -93 0.775154 0
w 93 1.290066 0
w -94 1.760880 0
w 94 0.567898 0
w -96 0.576664 0
w 96 1.734112 0
w -97 2.474281 0
w 97 0.404158 0
w -98 2.271941 0
w 98 0.440152 0
w -100 2.018567 0
w 100 0.495401 0
w -102 2.527356 0
w 102 0.395670 0
w -103 2.134775 0
w 103 0.468433 0
w -105 0.403665 0
w 105 2.477300 0
w -106 0.888027 0
w 106 1.126092 0
w -107 1.389227 0
w 107 0.719825 0
w -109 1.541230 0
w 109 0.648833 0
w -110 2.549996 0
w 110 0.392158 0
w -111 1.949177 0
w 111 0.513037 0
w -112 1.111621 0
w 112 0.899588 0
w -113 1.592442 0
w 113 0.627966 0
w -114 0.470187 0
w 114 2.126813 0
w -116 0.597626 0
w 116 1.673288 0
w -118 1.086195 0
w 118 0.920645 0
w -120 1.272090 0
w 120 0.786108 0
w -122 0.727658 0
w 122 1.374272 0
w -123 1.240227 0
w 123 0.806304 0
w -124 0.567032 0
w 124 1.763569 0
w -125 0.426929 0
w 125 2.342309 0
w -126 1.549317 0
w 126 0.645446 0
w -127 0.994998 0
w 127 1.005028 0
w -129 0.813884 0
w 129 1.228677 0
w -131 2.614259 0
w 131 0.382518 0
w -132 0.732835 0
w 132 1.364564 0
w -133 0.683396 0
w 133 1.463280 0
w -135 0.991841 0
w 135 1.008226 0
w -136 1.166805 0
w 136 0.857041 0
w -137 2.661618 0
w 137 0.375711 0
w -138 0.523787 0
w 138 1.909173 0
w -140 1.523802 0
w 140 0.656253 0
w -142 1.849025 0
w 142 0.540826 0
w -143 0.456544 0
w 143 2.190371 0
w -145 1.493655 0
w 145 0.669499 0
w -146 2.367081 0
w 146 0.422461 0
w -148 1.309200 0
w 148 0.763825 0
w -149 1.459278 0
w 149 0.685271 0
w -150 0.953316 0
w 150 1.048970 0
w -151 1.571734 0
w 151 0.636240 0
w -153 1.444453 0
w 153 0.692304 0
w -154 1.326723 0
w 154 0.753737 0
w -156 2.340507 0
w 156 0.427258 0
w -157 2.685720 0
w 157 0.372340 0
w -158 1.243472 0
w 158 0.804200 0
w -160 0.437645 0
w 160 2.284958 0
w -161 1.163180 0
w 161 0.859712 0
w -162 0.851283 0
w 162 1.174697 0
w -163 0.570891 0
w 163 1.751646 0
w -165 0.832524 0
w 165 1.201167 0
w -166 2.619267 0
w 166 0.381786 0
w -167 2.331645 0
w 167 0.428882 0
w -168 0.831545 0
w 168 1.202581 0
w -170 0.428263 0
w 170 2.335014 0
w -171 0.519660 0
w 171 1.924336 0
w -172 0.459970 0
w 172 2.174057 0
w -173 1.161402 0
w 173 0.861029 0
w -175 0.452238 0
w 175 2.211223 0
w -176 2.594676 0
w 176 0.385405 0
w -177 0.764118 0
w 177 1.308699 0
w -178 1.479588 0
w 178 0.675864 0
w -179 2.453612 0
w 179 0.407562 0
w -181 1.004177 0
w 181 0.995840 0
w -183 0.519223 0
w 183 1.925955 0
w -184 1.966889 0
w 184 0.508417 0
w -186 0.536361 0
w 186 1.864416 0
w -187 1.239601 0
w 187 0.806711 0
w -188 0.505499 0
w 188 1.978242 0
w -190 1.477041 0
w 190 0.677029 0
w -191 1.399444 0
w 191 0.714570 0
w -193 0.650007 0
w 193 1.538445 0
w -195 2.426161 0
w 195 0.412174 0
w -196 0.756218 0
w 196 1.322369 0
w -199 1.394908 0
w 199 0.716893 0
w -200 1.064993 0
w 200 0.938973 0
w -202 0.857664 0
w 202 1.165957 0
w -203 0.459517 0
w 203 2.176198 0
w -205 2.287146 0
w 205 0.437226 0
w -206 1.131599 0
w 206 0.883705 0
w -207 0.749824 0
w 207 1.333646 0
w -208 0.505182 0
w 208 1.979484 0
w -210 0.774666 0
w 210 1.290879 0
w -211 1.614787 0
w 211 0.619277 0
w -213 0.802969 0
w 213 1.245378 0
w -214 1.615386 0
w 214 0.619047 0
w -215 0.471974 0
w 215 2.118761 0
w -216 1.755116 0
w 216 0.569763 0
w -218 0.951499 0
w 218 1.050974 0
w -219 2.323856 0
w 219 0.430319 0
w -222 1.380761 0
w 222 0.724238 0
w -223 0.622583 0
w 223 1.606212 0
w -224 1.037822 0
w 224 0.963557 0
w -226 2.154994 0
w 226 0.464038 0
w -227 2.191077 0
w 227 0.456397 0
w -228 0.683675 0
w 228 1.462683 0
w -232 1.680237 0
w 232 0.595154 0
w -233 0.940434 0
w 233 1.063339 0
w -235 1.519679 0
w 235 0.658034 0
w -236 0.553893 0
w 236 1.805404 0
w -237 1.236731 0
w 237 0.808583 0
w -239 0.543841 0
w 239 1.838773 0
w -240 1.331099 0
w 240 0.751259 0
w -241 2.638727 0
w 241 0.378971 0
w -243 2.558056 0
w 243 0.390922 0
w -244 0.402433 0
w 244 2.484885 0
w -245 0.394959 0
w 245 2.531909 0
w -246 0.473662 0
w 246 2.111211 0
w -248 1.571638 0
w 248 0.636279 0
w -249 1.299464 0
w 249 0.769548 0
w -252 1.391703 0
w 252 0.718544 0
w -254 2.026949 0
w 254 0.493352 0
w -255 0.442358 0
w 255 2.260612 0
w -256 0.504829 0
w 256 1.980867 0
w -258 1.168102 0
w 258 0.856089 0
w -259 0.773658 0
w 259 1.292561 0
w -261 0.782036 0
w 261 1.278714 0
w -262 0.496929 0
w 262 2.012359 0
w -263 2.301959 0
w 263 0.434413 0
w -265 0.498395 0
w 265 2.006441 0
w -266 1.419382 0
w 266 0.704532 0
w -267 0.494778 0
w 267 2.021106 0
w -268 1.541168 0
w 268 0.648859 0
w -271 1.410818 0
w 271 0.708808 0
w -272 0.834671 0
w 272 1.198077 0
w -273 0.665084 0
w 273 1.503570 0
w -274 1.798088 0
w 274 0.556146 0
w -275 0.761776 0
w 275 1.312723 0
w -276 0.853631 0
w 276 1.171466 0
w -277 2.463523 0
w 277 0.405923 0
w -279 0.579269 0
w 279 1.726315 0
w -281 1.222529 0
w 281 0.817977 0
w -282 2.333182 0
w 282 0.428599 0
w -284 1.942847 0
w 284 0.514708 0
w -286 0.958006 0
w 286 1.043835 0
w -287 0.801035 0
w 287 1.248386 0
w -289 0.524731 0
w 289 1.905739 0
w -290 0.462436 0
w 290 2.162463 0
w -291 0.941549 0
w 291 1.062080 0
w -293 0.623846 0
w 293 1.602959 0
w -294 0.574742 0
w 294 1.739911 0
w -295 0.830159 0
w 295 1.204589 0
w -298 0.776085 0
w 298 1.288519 0
w -299 0.862575 0
w 299 1.159320 0
w -301 1.700473 0
w 301 0.588072 0
w -303 1.606718 0
w 303 0.622387 0
w -305 0.779437 0
w 305 1.282978 0
w -307 1.699600 0
w 307 0.588374 0
w -309 0.988622 0
w 309 1.011509 0
w -310 0.427150 0
w 310 2.341099 0
w -311 2.069268 0
w 311 0.483263 0
w -313 0.533409 0
w 313 1.874734 0
w -316 0.417992 0
w 316 2.392390 0
w -317 1.349267 0
w 317 0.741143 0
w -319 2.310886 0
w 319 0.432734 0
w -320 1.424618 0
w 320 0.701942 0
w -322 0.666788 0
w 322 1.499726 0
w -323 1.899389 0
w 323 0.526485 0
w -324 2.643979 0
w 324 0.378218 0
w -325 0.834231 0
w 325 1.198709 0
w -327 0.711904 0
w 327 1.404684 0
w -328 1.109975 0
w 328 0.900921 0
w -329 0.498074 0
w 329 2.007732 0
w -331 2.411381 0
w 331 0.414700 0
w -332 1.925011 0
w 332 0.519478 0
w -333 1.820695 0
w 333 0.549241 0
w -335 1.826017 0
w 335 0.547640 0
w -336 2.068997 0
w 336 0.483326 0
w -339 0.810104 0
w 339 1.234410 0
w -341 2.255910 0
w 341 0.443280 0
w -342 0.954209 0
w 342 1.047989 0
w -344 0.895879 0
w 344 1.116222 0
w -345 0.441457 0
w 345 2.265227 0
w -346 0.681789 0
w 346 1.466729 0
w -347 1.009566 0
w 347 0.990524 0
w -348 1.552936 0
w 348 0.643942 0
w -352 1.163702 0
w 352 0.859326 0
w -353 1.763773 0
w 353 0.566966 0
w -355 2.605378 0
w 355 0.383821 0
w -357 0.751826 0
w 357 1.330094 0
w -358 0.654449 0
w 358 1.528004 0
w -360 1.125858 0
w 360 0.888211 0
w -361 0.571397 0
w 361 1.750096 0
w -363 0.680433 0
w 363 1.469653 0
w -364 2.263553 0
w 364 0.441783 0
w -365 0.635883 0
w 365 1.572617 0
w -367 1.122716 0
w 367 0.890697 0
w -368 0.873483 0
w 368 1.144842 0
w -369 1.259558 0
w 369 0.793929 0
w -371 0.382504 0
w 371 2.614350 0
w -372 1.432953 0
w 372 0.697859 0
w -374 0.928813 0
w 374 1.076644 0
w -376 0.368776 0
w 376 2.711677 0
w -378 2.403308 0
w 378 0.416093 0
w -379 2.517427 0
w 379 0.397231 0
w -381 0.488501 0
w 381 2.047080 0
w -383 1.239399 0
w 383 0.806842 0
w -384 0.884998 0
w 384 1.129946 0
w -386 2.181474 0
w 386 0.458406 0
w -387 1.133988 0
w 387 0.881843 0
w -388 0.460076 0
w 388 2.173556 0
w -390 1.519479 0
w 390 0.658120 0
w -392 0.401163 0
w 392 2.492752 0
w -395 1.864806 0
w 395 0.536249 0
w -396 1.169767 0
w 396 0.854871 0
w -398 0.722961 0
w 398 1.383200 0
w -399 0.722495 0
w 399 1.384092 0
w -400 2.249840 0
w 400 0.444476 0
w -401 0.437946 0
w 401 2.283387 0
w -402 0.862714 0
w 402 1.159133 0
w -405 1.277032 0
w 405 0.783066 0
w -407 2.648407 0
w 407 0.377585 0
w -408 0.628347 0
w 408 1.591478 0
w -411 1.065893 0
w 411 0.938180 0
w -412 2.478384 0
w 412 0.403489 0
w -413 2.444857 0
w 413 0.409022 0
w -414 0.370340 0
w 414 2.700220 0
w -416 2.533761 0
w 416 0.394670 0
w -419 2.342104 0
w 419 0.426966 0
w -420 0.525565 0
w 420 1.902715 0
w -421 1.096921 0
w 421 0.911643 0
w -422 1.402462 0
w 422 0.713032 0
w -424 0.595555 0
w 424 1.679105 0
w -425 1.698216 0
w 425 0.588853 0
w -426 0.780774 0
w 426 1.280780 0
w -429 1.489754 0
w 429 0.671252 0
w -431 0.448077 0
w 431 2.231759 0
w -434 0.486676 0
w 434 2.054754 0
w -436 1.860403 0
w 436 0.537518 0
w -437 0.776657 0
w 437 1.287570 0
w -439 2.238753 0
w 439 0.446677 0
w -442 1.191689 0
w 442 0.839145 0
w -446 0.770533 0
w 446 1.297802 0
w -448 1.811770 0
w 448 0.551946 0
w -454 0.595914 0
w 454 1.678096 0
w -455 1.249784 0
w 455 0.800138 0
w -457 1.342218 0
w 457 0.745035 0
w -458 0.424004 0
w 458 2.358466 0
w -459 2.029841 0
w 459 0.492649 0
w -462 1.845255 0
w 462 0.541930 0
w -463 1.613948 0
w 463 0.619599 0
w -464 0.379291 0
w 464 2.636500 0
w -466 0.518278 0
w 466 1.929467 0
w -469 1.859848 0
w 469 0.537678 0
w -470 1.604571 0
w 470 0.623220 0
w -471 1.460908 0
w 471 0.684506 0
w -473 0.512007 0
w 473 1.953098 0
w -474 1.735278 0
w 474 0.576276 0
w -475 1.253216 0
w 475 0.797947 0
w -478 2.158681 0
w 478 0.463246 0
w -480 0.640702 0
w 480 1.560789 0
w -482 2.079185 0
w 482 0.480958 0
w -483 1.376298 0
w 483 0.726587 0
w -485 1.781467 0
w 485 0.561335 0
w -488 1.161577 0
w 488 0.860899 0
w -489 0.537491 0
w 489 1.860496 0
w -490 0.654403 0
w 490 1.528111 0
w -491 2.137229 0
w 491 0.467896 0
w -493 2.686783 0
w 493 0.372192 0
w -497 1.314644 0
w 497 0.760662 0
w -499 2.535214 0
w 499 0.394444 0
w -500 0.768996 0
w 500 1.300397 0
w -502 2.293988 0
w 502 0.435922 0
w -505 0.411034 0
w 505 2.432890 0
w -508 1.905953 0
w 508 0.524672 0
w -510 1.045939 0
w 510 0.956078 0
w -511 0.868233 0
w 511 1.151765 0
w -513 0.475720 0
w 513 2.102075 0
w -514 0.969801 0
w 514 1.031139 0
w -517 1.176382 0
w 517 0.850064 0
w -519 0.605274 0
w 519 1.652144 0
w -520 0.525943 0
w 520 1.901347 0
w -522 1.067986 0
w 522 0.936342 0
w -523 1.693095 0
w 523 0.590634 0
w -525 0.732879 0
w 525 1.364482 0
w -526 1.130180 0
w 526 0.884815 0
w -528 0.401791 0
w 528 2.488858 0
w -535 2.515802 0
w 535 0.397488 0
w -539 1.907937 0
w 539 0.524126 0
w -542 1.033364 0
w 542 0.967714 0
w -543 0.875050 0
w 543 1.142791 0
w -546 1.199927 0
w 546 0.833384 0
w -547 0.580747 0
w 547 1.721920 0
w -561 1.329566 0
w 561 0.752125 0
w -562 0.499325 0
w 562 2.002703 0
w -566 0.493358 0
w 566 2.026928 0
w -569 2.584175 0
w 569 0.386971 0
w -571 1.836498 0
w 571 0.544515 0
w -573 1.699684 0
w 573 0.588345 0
w -574 1.892505 0
w 574 0.528400 0
w -578 1.666251 0
w 578 0.600150 0
2 1 130 0
2 -1 -130 0
-2 1 -130 0
-2 -1 130 0
3 1 389 0
3 -1 -389 0
-3 1 -389 0
-3 -1 389 0
4 1 443 0
4 -1 -443 0
-4 1 -443 0
-4 -1 443 0
5 1 521 0
5 -1 -521 0
-5 1 -521 0
-5 -1 521 0
7 6 174 0
7 -6 -174 0
-7 6 -174 0
-7 -6 174 0
8 6 182 0
8 -6 -182 0
-8 6 -182 0
-8 -6 182 0
9 6 498 0
9 -6 -498 0
-9 6 -498 0
-9 -6 498 0
10 6 553 0
10 -6 -553 0
-10 6 -553 0
-10 -6 553 0
12 11 44 0
12 -11 -44 0
-12 11 -44 0
-12 -11 44 0
13 11 527 0
13 -11 -527 0
-13 11 -527 0
-13 -11 527 0
14 11 570 0
14 -11 -570 0
-14 11 -570 0
-14 -11 570 0
16 15 280 0
16 -15 -280 0
-16 15 -280 0
-16 -15 280 0
17 15 302 0
17 -15 -302 0
-17 15 -302 0
-17 -15 302 0
18 15 359 0
18 -15 -359 0
-18 15 -359 0
-18 -15 359 0
19 15 549 0
19 -15 -549 0
-19 15 -549 0
-19 -15 549 0
21 20 84 0
21 -20 -84 0
-21 20 -84 0
-21 -20 84 0
22 20 225 0
22 -20 -225 0
-22 20 -225 0
-22 -20 225 0
23 20 238 0
23 -20 -238 0
-23 20 -238 0
-23 -20 238 0
24 20 337 0
24 -20 -337 0
-24 20 -337 0
-24 -20 337 0
25 20 366 0
25 -20 -366 0
-25 20 -366 0
-25 -20 366 0
26 20 544 0
26 -20 -544 0
-26 20 -544 0
-26 -20 544 0
28 27 192 0
28 -27 -192 0
-28 27 -192 0
-28 -27 192 0
29 27 221 0
29 -27 -221 0
-29 27 -221 0
-29 -27 221 0
31 30 230 0
31 -30 -230 0
-31 30 -230 0
-31 -30 230 0
32 30 530 0
32 -30 -530 0
-32 30 -530 0
-32 -30 530 0
34 33 516 0
34 -33 -516 0
-34 33 -516 0
-34 -33 516 0
35 33 524 0
35 -33 -524 0
-35 33 -524 0
-35 -33 524 0
37 36 108 0
37 -36 -108 0
-37 36 -108 0
-37 -36 108 0
38 36 440 0
38 -36 -440 0
-38 36 -440 0
-38 -36 440 0
39 36 570 0
39 -36 -570 0
-39 36 -570 0
-39 -36 570 0
41 40 484 0
41 -40 -484 0
-41 40 -484 0
-41 -40 484 0
42 40 558 0
42 -40 -558 0
-42 40 -558 0
-42 -40 558 0
43 40 568 0
43 -40 -568 0
-43 40 -568 0
-43 -40 568 0
45 44 155 0
45 -44 -155 0
-45 44 -155 0
-45 -44 155 0
46 44 296 0
46 -44 -296 0
-46 44 -296 0
-46 -44 296 0
47 44 300 0
47 -44 -300 0
-47 44 -300 0
-47 -44 300 0
49 48 164 0
49 -48 -164 0
-49 48 -164 0
-49 -48 164 0
50 48 314 0
50 -48 -314 0
-50 48 -314 0
-50 -48 314 0
51 48 410 0
51 -48 -410 0
-51 48 -410 0
-51 -48 410 0
53 52 99 0
53 -52 -99 0
-53 52 -99 0
-53 -52 99 0
54 52 189 0
54 -52 -189 0
-54 52 -189 0
-54 -52 189 0
55 52 209 0
55 -52 -209 0
-55 52 -209 0
-55 -52 209 0
56 52 545 0
56 -52 -545 0
-56 52 -545 0
-56 -52 545 0
58 57 144 0
58 -57 -144 0
-58 57 -144 0
-58 -57 144 0
59 57 440 0
59 -57 -440 0
-59 57 -440 0
-59 -57 440 0
60 57 443 0
60 -57 -443 0
-60 57 -443 0
-60 -57 443 0
61 57 518 0
61 -57 -518 0
-61 57 -518 0
-61 -57 518 0
62 57 554 0
62 -57 -554 0
-62 57 -554 0
-62 -57 554 0
64 63 130 0
64 -63 -130 0
-64 63 -130 0
-64 -63 130 0
65 63 557 0
65 -63 -557 0
-65 63 -557 0
-65 -63 557 0
68 67 189 0
68 -67 -189 0
-68 67 -189 0
-68 -67 189 0
69 67 238 0
69 -67 -238 0
-69 67 -238 0
-69 -67 238 0
70 67 410 0
70 -67 -410 0
-70 67 -410 0
-70 -67 410 0
71 67 438 0
71 -67 -438 0
-71 67 -438 0
-71 -67 438 0
72 67 444 0
72 -67 -444 0
-72 67 -444 0
-72 -67 444 0
74 73 169 0
74 -73 -169 0
-74 73 -169 0
-74 -73 169 0
75 73 257 0
75 -73 -257 0
-75 73 -257 0
-75 -73 257 0
76 73 410 0
76 -73 -410 0
-76 73 -410 0
-76 -73 410 0
77 73 452 0
77 -73 -452 0
-77 73 -452 0
-77 -73 452 0
79 78 292 0
79 -78 -292 0
-79 78 -292 0
-79 -78 292 0
80 78 382 0
80 -78 -382 0
-80 78 -382 0
-80 -78 382 0
81 78 549 0
81 -78 -549 0
-81 78 -549 0
-81 -78 549 0
83 82 568 0
83 -82 -568 0
-83 82 -568 0
-83 -82 568 0
85 84 300 0
85 -84 -300 0
-85 84 -300 0
-85 -84 300 0
86 84 359 0
86 -84 -359 0
-86 84 -359 0
-86 -84 359 0
87 84 415 0
87 -84 -415 0
-87 84 -415 0
-87 -84 415 0
88 84 563 0
88 -84 -563 0
-88 84 -563 0
-88 -84 563 0
89 84 575 0
89 -84 -575 0
-89 84 -575 0
-89 -84 575 0
91 90 147 0
91 -90 -147 0
-91 90 -147 0
-91 -90 147 0
92 90 359 0
92 -90 -359 0
-92 90 -359 0
-92 -90 359 0
93 90 380 0
93 -90 -380 0
-93 90 -380 0
-93 -90 380 0
94 90 530 0
94 -90 -530 0
-94 90 -530 0
-94 -90 530 0
96 95 212 0
96 -95 -212 0
-96 95 -212 0
-96 -95 212 0
97 95 306 0
97 -95 -306 0
-97 95 -306 0
-97 -95 306 0
98 95 527 0
98 -95 -527 0
-98 95 -527 0
-98 -95 527 0
100 99 472 0
100 -99 -472 0
-100 99 -472 0
-100 -99 472 0
102 101 340 0
102 -101 -340 0
-102 101 -340 0
-102 -101 340 0
103 101 524 0
103 -101 -524 0
-103 101 -524 0
-103 -101 524 0
105 104 270 0
105 -104 -270 0
-105 104 -270 0
-105 -104 270 0
106 104 373 0
106 -104 -373 0
-106 104 -373 0
-106 -104 373 0
107 104 449 0
107 -104 -449 0
-107 104 -449 0
-107 -104 449 0
109 108 144 0
109 -108 -144 0
-109 108 -144 0
-109 -108 144 0
110 108 356 0
110 -108 -356 0
-110 108 -356 0
-110 -108 356 0
111 108 362 0
111 -108 -362 0
-111 108 -362 0
-111 -108 362 0
112 108 366 0
112 -108 -366 0
-112 108 -366 0
-112 -108 366 0
113 108 432 0
113 -108 -432 0
-113 108 -432 0
-113 -108 432 0
114 108 501 0
114 -108 -501 0
-114 108 -501 0
-114 -108 501 0
116 115 492 0
116 -115 -492 0
-116 115 -492 0
-116 -115 492 0
118 117 217 0
118 -117 -217 0
-118 117 -217 0
-118 -117 217 0
120 119 465 0
120 -119 -465 0
-120 119 -465 0
-120 -119 465 0
122 121 354 0
122 -121 -354 0
-122 121 -354 0
-122 -121 354 0
123 121 476 0
123 -121 -476 0
-123 121 -476 0
-123 -121 476 0
124 121 552 0
124 -121 -552 0
-124 121 -552 0
-124 -121 552 0
125 121 557 0
125 -121 -557 0
-125 121 -557 0
-125 -121 557 0
126 121 560 0
126 -121 -560 0
-126 121 -560 0
-126 -121 560 0
127 121 586 0
127 -121 -586 0
-127 121 -586 0
-127 -121 586 0
129 128 551 0
129 -128 -551 0
-129 128 -551 0
-129 -128 551 0
131 130 141 0
131 -130 -141 0
-131 130 -141 0
-131 -130 141 0
132 130 495 0
132 -130 -495 0
-132 130 -495 0
-132 -130 495 0
133 130 551 0
133 -130 -551 0
-133 130 -551 0
-133 -130 551 0
135 134 250 0
135 -134 -250 0
-135 134 -250 0
-135 -134 250 0
136 134 433 0
136 -134 -433 0
-136 134 -433 0
-136 -134 433 0
137 134 530 0
137 -134 -530 0
-137 134 -530 0
-137 -134 530 0
138 134 564 0
138 -134 -564 0
-138 134 -564 0
-138 -134 564 0
140 139 234 0
140 -139 -234 0
-140 139 -234 0
-140 -139 234 0
142 141 377 0
142 -141 -377 0
-142 141 -377 0
-142 -141 377 0
143 141 512 0
143 -141 -512 0
-143 141 -512 0
-143 -141 512 0
145 144 174 0
145 -144 -174 0
-145 144 -174 0
-145 -144 174 0
146 144 533 0
146 -144 -533 0
-146 144 -533 0
-146 -144 533 0
148 147 212 0
148 -147 -212 0
-148 147 -212 0
-148 -147 212 0
149 147 269 0
149 -147 -269 0
-149 147 -269 0
-149 -147 269 0
150 147 503 0
150 -147 -503 0
-150 147 -503 0
-150 -147 503 0
151 147 532 0
151 -147 -532 0
-151 147 -532 0
-151 -147 532 0
153 152 468 0
153 -152 -468 0
-153 152 -468 0
-153 -152 468 0
154 152 498 0
154 -152 -498 0
-154 152 -498 0
-154 -152 498 0
156 155 314 0
156 -155 -314 0
-156 155 -314 0
-156 -155 314 0
157 155 481 0
157 -155 -481 0
-157 155 -481 0
-157 -155 481 0
158 155 534 0
158 -155 -534 0
-158 155 -534 0
-158 -155 534 0
160 159 351 0
160 -159 -351 0
-160 159 -351 0
-160 -159 351 0
161 159 403 0
161 -159 -403 0
-161 159 -403 0
-161 -159 403 0
162 159 527 0
162 -159 -527 0
-162 159 -527 0
-162 -159 527 0
163 159 544 0
163 -159 -544 0
-163 159 -544 0
-163 -159 544 0
165 164 351 0
165 -164 -351 0
-165 164 -351 0
-165 -164 351 0
166 164 438 0
166 -164 -438 0
-166 164 -438 0
-166 -164 438 0
167 164 506 0
167 -164 -506 0
-167 164 -506 0
-167 -164 506 0
168 164 570 0
168 -164 -570 0
-168 164 -570 0
-168 -164 570 0
170 169 197 0
170 -169 -197 0
-170 169 -197 0
-170 -169 197 0
171 169 209 0
171 -169 -209 0
-171 169 -209 0
-171 -169 209 0
172 169 283 0
172 -169 -283 0
-172 169 -283 0
-172 -169 283 0
173 169 362 0
173 -169 -362 0
-173 169 -362 0
-173 -169 362 0
175 174 247 0
175 -174 -247 0
-175 174 -247 0
-175 -174 247 0
176 174 318 0
176 -174 -318 0
-176 174 -318 0
-176 -174 318 0
177 174 444 0
177 -174 -444 0
-177 174 -444 0
-177 -174 444 0
178 174 555 0
178 -174 -555 0
-178 174 -555 0
-178 -174 555 0
179 174 572 0
179 -174 -572 0
-179 174 -572 0
-179 -174 572 0
181 180 433 0
181 -180 -433 0
-181 180 -433 0
-181 -180 433 0
183 182 221 0
183 -182 -221 0
-183 182 -221 0
-183 -182 221 0
184 182 410 0
184 -182 -410 0
-184 182 -410 0
-184 -182 410 0
186 185 380 0
186 -185 -380 0
-186 185 -380 0
-186 -185 380 0
187 185 404 0
187 -185 -404 0
-187 185 -404 0
-187 -185 404 0
188 185 563 0
188 -185 -563 0
-188 185 -563 0
-188 -185 563 0
190 189 257 0
190 -189 -257 0
-190 189 -257 0
-190 -189 257 0
191 189 518 0
191 -189 -518 0
-191 189 -518 0
-191 -189 518 0
193 192 428 0
193 -192 -428 0
-193 192 -428 0
-193 -192 428 0
195 194 356 0
195 -194 -356 0
-195 194 -356 0
-195 -194 356 0
196 194 461 0
196 -194 -461 0
-196 194 -461 0
-196 -194 461 0
199 198 468 0
199 -198 -468 0
-199 198 -468 0
-199 -198 468 0
200 198 537 0
200 -198 -537 0
-200 198 -537 0
-200 -198 537 0
202 201 285 0
202 -201 -285 0
-202 201 -285 0
-202 -201 285 0
203 201 568 0
203 -201 -568 0
-203 201 -568 0
-203 -201 568 0
205 204 393 0
205 -204 -393 0
-205 204 -393 0
-205 -204 393 0
206 204 418 0
206 -204 -418 0
-206 204 -418 0
-206 -204 418 0
207 204 527 0
207 -204 -527 0
-207 204 -527 0
-207 -204 527 0
208 204 545 0
208 -204 -545 0
-208 204 -545 0
-208 -204 545 0
210 209 530 0
210 -209 -530 0
-210 209 -530 0
-210 -209 530 0
211 209 534 0
211 -209 -534 0
-211 209 -534 0
-211 -209 534 0
213 212 296 0
213 -212 -296 0
-213 212 -296 0
-213 -212 296 0
214 212 445 0
214 -212 -445 0
-214 212 -445 0
-214 -212 445 0
215 212 541 0
215 -212 -541 0
-215 212 -541 0
-215 -212 541 0
216 212 554 0
216 -212 -554 0
-216 212 -554 0
-216 -212 554 0
218 217 250 0
218 -217 -250 0
-218 217 -250 0
-218 -217 250 0
219 217 377 0
219 -217 -377 0
-219 217 -377 0
-219 -217 377 0
222 221 468 0
222 -221 -468 0
-222 221 -468 0
-222 -221 468 0
223 221 529 0
223 -221 -529 0
-223 221 -529 0
-223 -221 529 0
224 221 557 0
224 -221 -557 0
-224 221 -557 0
-224 -221 557 0
226 225 318 0
226 -225 -318 0
-226 225 -318 0
-226 -225 318 0
227 225 477 0
227 -225 -477 0
-227 225 -477 0
-227 -225 477 0
228 225 521 0
228 -225 -521 0
-228 225 -521 0
-228 -225 521 0
232 231 238 0
232 -231 -238 0
-232 231 -238 0
-232 -231 238 0
233 231 427 0
233 -231 -427 0
-233 231 -427 0
-233 -231 427 0
235 234 297 0
235 -234 -297 0
-235 234 -297 0
-235 -234 297 0
236 234 441 0
236 -234 -441 0
-236 234 -441 0
-236 -234 441 0
237 234 450 0
237 -234 -450 0
-237 234 -450 0
-237 -234 450 0
239 238 465 0
239 -238 -465 0
-239 238 -465 0
-239 -238 465 0
240 238 487 0
240 -238 -487 0
-240 238 -487 0
-240 -238 487 0
241 238 524 0
241 -238 -524 0
-241 238 -524 0
-241 -238 524 0
243 242 302 0
243 -242 -302 0
-243 242 -302 0
-243 -242 302 0
244 242 406 0
244 -242 -406 0
-244 242 -406 0
-244 -242 406 0
245 242 417 0
245 -242 -417 0
-245 242 -417 0
-245 -242 417 0
246 242 558 0
246 -242 -558 0
-246 242 -558 0
-246 -242 558 0
248 247 269 0
248 -247 -269 0
-248 247 -269 0
-248 -247 269 0
249 247 315 0
249 -247 -315 0
-249 247 -315 0
-249 -247 315 0
252 251 541 0
252 -251 -541 0
-252 251 -541 0
-252 -251 541 0
254 253 453 0
254 -253 -453 0
-254 253 -453 0
-254 -253 453 0
255 253 551 0
255 -253 -551 0
-255 253 -551 0
-255 -253 551 0
256 253 593 0
256 -253 -593 0
-256 253 -593 0
-256 -253 593 0
258 257 461 0
258 -257 -461 0
-258 257 -461 0
-258 -257 461 0
259 257 583 0
259 -257 -583 0
-259 257 -583 0
-259 -257 583 0
261 260 312 0
261 -260 -312 0
-261 260 -312 0
-261 -260 312 0
262 260 521 0
262 -260 -521 0
-262 260 -521 0
-262 -260 521 0
263 260 583 0
263 -260 -583 0
-263 260 -583 0
-263 -260 583 0
265 264 297 0
265 -264 -297 0
-265 264 -297 0
-265 -264 297 0
266 264 326 0
266 -264 -326 0
-266 264 -326 0
-266 -264 326 0
267 264 351 0
267 -264 -351 0
-267 264 -351 0
-267 -264 351 0
268 264 590 0
268 -264 -590 0
-268 264 -590 0
-268 -264 590 0
271 270 321 0
271 -270 -321 0
-271 270 -321 0
-271 -270 321 0
272 270 380 0
272 -270 -380 0
-272 270 -380 0
-272 -270 380 0
273 270 512 0
273 -270 -512 0
-273 270 -512 0
-273 -270 512 0
274 270 533 0
274 -270 -533 0
-274 270 -533 0
-274 -270 533 0
275 270 540 0
275 -270 -540 0
-275 270 -540 0
-275 -270 540 0
276 270 551 0
276 -270 -551 0
-276 270 -551 0
-276 -270 551 0
277 270 582 0
277 -270 -582 0
-277 270 -582 0
-277 -270 582 0
279 278 586 0
279 -278 -586 0
-279 278 -586 0
-279 -278 586 0
281 280 397 0
281 -280 -397 0
-281 280 -397 0
-281 -280 397 0
282 280 568 0
282 -280 -568 0
-282 280 -568 0
-282 -280 568 0
284 283 338 0
284 -283 -338 0
-284 283 -338 0
-284 -283 338 0
286 285 540 0
286 -285 -540 0
-286 285 -540 0
-286 -285 540 0
287 285 570 0
287 -285 -570 0
-287 285 -570 0
-287 -285 570 0
289 288 349 0
289 -288 -349 0
-289 288 -349 0
-289 -288 349 0
290 288 467 0
290 -288 -467 0
-290 288 -467 0
-290 -288 467 0
291 288 572 0
291 -288 -572 0
-291 288 -572 0
-291 -288 572 0
293 292 337 0
293 -292 -337 0
-293 292 -337 0
-293 -292 337 0
294 292 417 0
294 -292 -417 0
-294 292 -417 0
-294 -292 417 0
295 292 456 0
295 -292 -456 0
-295 292 -456 0
-295 -292 456 0
298 297 443 0
298 -297 -443 0
-298 297 -443 0
-298 -297 443 0
299 297 537 0
299 -297 -537 0
-299 297 -537 0
-299 -297 537 0
301 300 444 0
301 -300 -444 0
-301 300 -444 0
-301 -300 444 0
303 302 445 0
303 -302 -445 0
-303 302 -445 0
-303 -302 445 0
305 304 409 0
305 -304 -409 0
-305 304 -409 0
-305 -304 409 0
307 306 534 0
307 -306 -534 0
-307 306 -534 0
-307 -306 534 0
309 308 373 0
309 -308 -373 0
-309 308 -373 0
-309 -308 373 0
310 308 385 0
310 -308 -385 0
-310 308 -385 0
-310 -308 385 0
311 308 449 0
311 -308 -449 0
-311 308 -449 0
-311 -308 449 0
313 312 506 0
313 -312 -506 0
-313 312 -506 0
-313 -312 506 0
316 315 536 0
316 -315 -536 0
-316 315 -536 0
-316 -315 536 0
317 315 545 0
317 -315 -545 0
-317 315 -545 0
-317 -315 545 0
319 318 409 0
319 -318 -409 0
-319 318 -409 0
-319 -318 409 0
320 318 582 0
320 -318 -582 0
-320 318 -582 0
-320 -318 582 0
322 321 430 0
322 -321 -430 0
-322 321 -430 0
-322 -321 430 0
323 321 536 0
323 -321 -536 0
-323 321 -536 0
-323 -321 536 0
324 321 563 0
324 -321 -563 0
-324 321 -563 0
-324 -321 563 0
325 321 576 0
325 -321 -576 0
-325 321 -576 0
-325 -321 576 0
327 326 389 0
327 -326 -389 0
-327 326 -389 0
-327 -326 389 0
328 326 515 0
328 -326 -515 0
-328 326 -515 0
-328 -326 515 0
329 326 557 0
329 -326 -557 0
-329 326 -557 0
-329 -326 557 0
331 330 366 0
331 -330 -366 0
-331 330 -366 0
-331 -330 366 0
332 330 533 0
332 -330 -533 0
-332 330 -533 0
-332 -330 533 0
333 330 587 0
333 -330 -587 0
-333 330 -587 0
-333 -330 587 0
335 334 343 0
335 -334 -343 0
-335 334 -343 0
-335 -334 343 0
336 334 548 0
336 -334 -548 0
-336 334 -548 0
-336 -334 548 0
339 338 567 0
339 -338 -567 0
-339 338 -567 0
-339 -338 567 0
341 340 507 0
341 -340 -507 0
-341 340 -507 0
-341 -340 507 0
342 340 533 0
342 -340 -533 0
-342 340 -533 0
-342 -340 533 0
344 343 370 0
344 -343 -370 0
-344 343 -370 0
-344 -343 370 0
345 343 418 0
345 -343 -418 0
-345 343 -418 0
-345 -343 418 0
346 343 432 0
346 -343 -432 0
-346 343 -432 0
-346 -343 432 0
347 343 443 0
347 -343 -443 0
-347 343 -443 0
-347 -343 443 0
348 343 584 0
348 -343 -584 0
-348 343 -584 0
-348 -343 584 0
352 351 503 0
352 -351 -503 0
-352 351 -503 0
-352 -351 503 0
353 351 591 0
353 -351 -591 0
-353 351 -591 0
-353 -351 591 0
355 354 509 0
355 -354 -509 0
-355 354 -509 0
-355 -354 509 0
357 356 486 0
357 -356 -486 0
-357 356 -486 0
-357 -356 486 0
358 356 550 0
358 -356 -550 0
-358 356 -550 0
-358 -356 550 0
360 359 564 0
360 -359 -564 0
-360 359 -564 0
-360 -359 564 0
361 359 589 0
361 -359 -589 0
-361 359 -589 0
-361 -359 589 0
363 362 375 0
363 -362 -375 0
-363 362 -375 0
-363 -362 375 0
364 362 430 0
364 -362 -430 0
-364 362 -430 0
-364 -362 430 0
365 362 456 0
365 -362 -456 0
-365 362 -456 0
-365 -362 456 0
367 366 430 0
367 -366 -430 0
-367 366 -430 0
-367 -366 430 0
368 366 449 0
368 -366 -449 0
-368 366 -449 0
-368 -366 449 0
369 366 527 0
369 -366 -527 0
-369 366 -527 0
-369 -366 527 0
371 370 549 0
371 -370 -549 0
-371 370 -549 0
-371 -370 549 0
372 370 564 0
372 -370 -564 0
-372 370 -564 0
-372 -370 564 0
374 373 461 0
374 -373 -461 0
-374 373 -461 0
-374 -373 461 0
376 375 403 0
376 -375 -403 0
-376 375 -403 0
-376 -375 403 0
378 377 389 0
378 -377 -389 0
-378 377 -389 0
-378 -377 389 0
379 377 564 0
379 -377 -564 0
-379 377 -564 0
-379 -377 564 0
381 380 476 0
381 -380 -476 0
-381 380 -476 0
-381 -380 476 0
383 382 534 0
383 -382 -534 0
-383 382 -534 0
-383 -382 534 0
384 382 553 0
384 -382 -553 0
-384 382 -553 0
-384 -382 553 0
386 385 430 0
386 -385 -430 0
-386 385 -430 0
-386 -385 430 0
387 385 496 0
387 -385 -496 0
-387 385 -496 0
-387 -385 496 0
388 385 564 0
388 -385 -564 0
-388 385 -564 0
-388 -385 564 0
390 389 418 0
390 -389 -418 0
-390 389 -418 0
-390 -389 418 0
392 391 479 0
392 -391 -479 0
-392 391 -479 0
-392 -391 479 0
395 394 579 0
395 -394 -579 0
-395 394 -579 0
-395 -394 579 0
396 394 583 0
396 -394 -583 0
-396 394 -583 0
-396 -394 583 0
398 397 417 0
398 -397 -417 0
-398 397 -417 0
-398 -397 417 0
399 397 418 0
399 -397 -418 0
-399 397 -418 0
-399 -397 418 0
400 397 453 0
400 -397 -453 0
-400 397 -453 0
-400 -397 453 0
401 397 504 0
401 -397 -504 0
-401 397 -504 0
-401 -397 504 0
402 397 509 0
402 -397 -509 0
-402 397 -509 0
-402 -397 509 0
405 404 506 0
405 -404 -506 0
-405 404 -506 0
-405 -404 506 0
407 406 556 0
407 -406 -556 0
-407 406 -556 0
-407 -406 556 0
408 406 564 0
408 -406 -564 0
-408 406 -564 0
-408 -406 564 0
411 410 432 0
411 -410 -432 0
-411 410 -432 0
-411 -410 432 0
412 410 441 0
412 -410 -441 0
-412 410 -441 0
-412 -410 441 0
413 410 518 0
413 -410 -518 0
-413 410 -518 0
-413 -410 518 0
414 410 589 0
414 -410 -589 0
-414 410 -589 0
-414 -410 589 0
416 415 532 0
416 -415 -532 0
-416 415 -532 0
-416 -415 532 0
419 418 445 0
419 -418 -445 0
-419 418 -445 0
-419 -418 445 0
420 418 531 0
420 -418 -531 0
-420 418 -531 0
-420 -418 531 0
421 418 560 0
421 -418 -560 0
-421 418 -560 0
-421 -418 560 0
422 418 575 0
422 -418 -575 0
-422 418 -575 0
-422 -418 575 0
424 423 435 0
424 -423 -435 0
-424 423 -435 0
-424 -423 435 0
425 423 461 0
425 -423 -461 0
-425 423 -461 0
-425 -423 461 0
426 423 515 0
426 -423 -515 0
-426 423 -515 0
-426 -423 515 0
429 428 460 0
429 -428 -460 0
-429 428 -460 0
-429 -428 460 0
431 430 512 0
431 -430 -512 0
-431 430 -512 0
-431 -430 512 0
434 433 477 0
434 -433 -477 0
-434 433 -477 0
-434 -433 477 0
436 435 484 0
436 -435 -484 0
-436 435 -484 0
-436 -435 484 0
437 435 592 0
437 -435 -592 0
-437 435 -592 0
-437 -435 592 0
439 438 553 0
439 -438 -553 0
-439 438 -553 0
-439 -438 553 0
442 441 477 0
442 -441 -477 0
-442 441 -477 0
-442 -441 477 0
446 445 558 0
446 -445 -558 0
-446 445 -558 0
-446 -445 558 0
448 447 564 0
448 -447 -564 0
-448 447 -564 0
-448 -447 564 0
454 453 521 0
454 -453 -521 0
-454 453 -521 0
-454 -453 521 0
455 453 558 0
455 -453 -558 0
-455 453 -558 0
-455 -453 558 0
457 456 472 0
457 -456 -472 0
-457 456 -472 0
-457 -456 472 0
458 456 529 0
458 -456 -529 0
-458 456 -529 0
-458 -456 529 0
459 456 553 0
459 -456 -553 0
-459 456 -553 0
-459 -456 553 0
462 461 476 0
462 -461 -476 0
-462 461 -476 0
-462 -461 476 0
463 461 524 0
463 -461 -524 0
-463 461 -524 0
-463 -461 524 0
464 461 537 0
464 -461 -537 0
-464 461 -537 0
-464 -461 537 0
466 465 516 0
466 -465 -516 0
-466 465 -516 0
-466 -465 516 0
469 468 492 0
469 -468 -492 0
-469 468 -492 0
-469 -468 492 0
470 468 538 0
470 -468 -538 0
-470 468 -538 0
-470 -468 538 0
471 468 565 0
471 -468 -565 0
-471 468 -565 0
-471 -468 565 0
473 472 509 0
473 -472 -509 0
-473 472 -509 0
-473 -472 509 0
474 472 553 0
474 -472 -553 0
-474 472 -553 0
-474 -472 553 0
475 472 582 0
475 -472 -582 0
-475 472 -582 0
-475 -472 582 0
478 477 534 0
478 -477 -534 0
-478 477 -534 0
-478 -477 534 0
480 479 568 0
480 -479 -568 0
-480 479 -568 0
-480 -479 568 0
482 481 503 0
482 -481 -503 0
-482 481 -503 0
-482 -481 503 0
483 481 577 0
483 -481 -577 0
-483 481 -577 0
-483 -481 577 0
485 484 553 0
485 -484 -553 0
-485 484 -553 0
-485 -484 553 0
488 487 532 0
488 -487 -532 0
-488 487 -532 0
-488 -487 532 0
489 487 550 0
489 -487 -550 0
-489 487 -550 0
-489 -487 550 0
490 487 554 0
490 -487 -554 0
-490 487 -554 0
-490 -487 554 0
491 487 593 0
491 -487 -593 0
-491 487 -593 0
-491 -487 593 0
493 492 549 0
493 -492 -549 0
-493 492 -549 0
-493 -492 549 0
497 496 507 0
497 -496 -507 0
-497 496 -507 0
-497 -496 507 0
499 498 579 0
499 -498 -579 0
-499 498 -579 0
-499 -498 579 0
500 498 589 0
500 -498 -589 0
-500 498 -589 0
-500 -498 589 0
502 501 568 0
502 -501 -568 0
-502 501 -568 0
-502 -501 568 0
505 504 553 0
505 -504 -553 0
-505 504 -553 0
-505 -504 553 0
508 507 556 0
508 -507 -556 0
-508 507 -556 0
-508 -507 556 0
510 509 544 0
510 -509 -544 0
-510 509 -544 0
-510 -509 544 0
511 509 586 0
511 -509 -586 0
-511 509 -586 0
-511 -509 586 0
513 512 591 0
513 -512 -591 0
-513 512 -591 0
-513 -512 591 0
514 512 592 0
514 -512 -592 0
-514 512 -592 0
-514 -512 592 0
517 516 530 0
517 -516 -530 0
-517 516 -530 0
-517 -516 530 0
519 518 575 0
519 -518 -575 0
-519 518 -575 0
-519 -518 575 0
520 518 588 0
520 -518 -588 0
-520 518 -588 0
-520 -518 588 0
522 521 575 0
522 -521 -575 0
-522 521 -575 0
-522 -521 575 0
523 521 581 0
523 -521 -581 0
-523 521 -581 0
-523 -521 581 0
525 524 531 0
525 -524 -531 0
-525 524 -531 0
-525 -524 531 0
526 524 550 0
526 -524 -550 0
-526 524 -550 0
-526 -524 550 0
528 527 558 0
528 -527 -558 0
-528 527 -558 0
-528 -527 558 0
535 534 541 0
535 -534 -541 0
-535 534 -541 0
-535 -534 541 0
539 538 550 0
539 -538 -550 0
-539 538 -550 0
-539 -538 550 0
542 541 557 0
542 -541 -557 0
-542 541 -557 0
-542 -541 557 0
543 541 582 0
543 -541 -582 0
-543 541 -582 0
-543 -541 582 0
546 545 557 0
546 -545 -557 0
-546 545 -557 0
-546 -545 557 0
547 545 593 0
547 -545 -593 0
-547 545 -593 0
-547 -545 593 0
561 560 585 0
561 -560 -585 0
-561 560 -585 0
-561 -560 585 0
562 560 586 0
562 -560 -586 0
-562 560 -586 0
-562 -560 586 0
566 565 582 0
566 -565 -582 0
-566 565 -582 0
-566 -565 582 0
569 568 580 0
569 -568 -580 0
-569 568 -580 0
-569 -568 580 0
571 570 584 0
571 -570 -584 0
-571 570 -584 0
-571 -570 584 0
573 572 589 0
573 -572 -589 0
-573 572 -589 0
-573 -572 589 0
574 572 590 0
574 -572 -590 0
-574 572 -590 0
-574 -572 590 0
578 577 587 0
578 -577 -587 0
-578 577 -587 0
-578 -577 587 0
